1 51 65 81 33 50 76 3 79 78 9 20 32 90 63 10 70 
89 83 45 46 36 47 8 60 6 
27 69 31 62 11 64 49 19 48 82 18 
94 95 92 85 16 86 38 44 14 87 13 58 
53 40 21 41 22 75 56 74 4 55 25 54 24 80 12 26 
52 7 88 30 66 71 35 34 29 68 77 28 
57 42 43 15 39 67 23 72 73 2 97 59 99 5 84 17 61 91 100 37 98 93 96 
